objective value:                                12004
t_x_4                                               1 	(obj:22)
t_x_5                                               1 	(obj:16)
t_x_8                                               1 	(obj:4)
t_x_9                                               1 	(obj:16)
t_x_15                                              1 	(obj:15)
t_x_19                                              1 	(obj:19)
t_x_20                                              1 	(obj:20)
t_x_24                                              1 	(obj:10)
t_x_25                                              1 	(obj:17)
t_x_28                                              1 	(obj:45)
t_x_30                                              1 	(obj:23)
t_x_31                                              1 	(obj:42)
t_x_33                                              1 	(obj:25)
t_x_35                                              1 	(obj:32)
t_x_37                                              1 	(obj:32)
t_x_38                                              1 	(obj:13)
t_x_41                                              1 	(obj:27)
t_x_42                                              1 	(obj:4)
t_x_43                                              1 	(obj:7)
t_x_45                                              1 	(obj:15)
t_x_46                                              1 	(obj:11)
t_x_47                                              1 	(obj:66)
t_x_51                                              1 	(obj:13)
t_x_52                                              1 	(obj:8)
t_x_55                                              1 	(obj:11)
t_x_62                                              1 	(obj:5)
t_x_66                                              1 	(obj:27)
t_x_71                                              1 	(obj:41)
t_x_75                                              1 	(obj:20)
t_x_77                                              1 	(obj:46)
t_x_78                                              1 	(obj:25)
t_x_79                                              1 	(obj:8)
t_x_81                                              1 	(obj:74)
t_x_82                                              1 	(obj:29)
t_x_86                                              1 	(obj:16)
t_x_88                                              1 	(obj:37)
t_x_91                                              1 	(obj:34)
t_x_93                                              1 	(obj:51)
t_x_94                                              1 	(obj:37)
t_x_95                                              1 	(obj:26)
t_x_97                                              1 	(obj:23)
t_x_99                                              1 	(obj:9)
t_x_101                                             1 	(obj:0)
t_x_102                                             1 	(obj:13)
t_x_103                                             1 	(obj:6)
t_x_105                                             1 	(obj:2)
t_x_107                                             1 	(obj:8)
t_x_108                                             1 	(obj:14)
t_x_110                                             1 	(obj:26)
t_x_113                                             1 	(obj:33)
t_x_114                                             1 	(obj:35)
t_x_120                                             1 	(obj:21)
t_x_121                                             1 	(obj:58)
t_x_123                                             1 	(obj:8)
t_x_124                                             1 	(obj:55)
t_x_126                                             1 	(obj:19)
t_x_130                                             1 	(obj:15)
t_x_132                                             1 	(obj:24)
t_x_133                                             1 	(obj:40)
t_x_136                                             1 	(obj:65)
t_x_139                                             1 	(obj:9)
t_x_145                                             1 	(obj:37)
t_x_147                                             1 	(obj:3)
t_x_150                                             1 	(obj:28)
t_x_157                                             1 	(obj:21)
t_x_158                                             1 	(obj:24)
t_x_162                                             1 	(obj:61)
t_x_164                                             1 	(obj:22)
t_x_165                                             1 	(obj:1)
t_x_189                                             1 	(obj:42)
t_x_190                                             1 	(obj:23)
t_x_191                                             1 	(obj:5)
t_x_192                                             1 	(obj:28)
t_x_204                                             1 	(obj:4)
t_x_210                                             1 	(obj:2)
t_x_212                                             1 	(obj:23)
t_x_215                                             1 	(obj:63)
t_x_217                                             1 	(obj:8)
t_x_221                                             1 	(obj:1)
t_x_223                                             1 	(obj:3)
t_x_225                                             1 	(obj:47)
t_x_227                                             1 	(obj:3)
t_x_229                                             1 	(obj:19)
t_x_230                                             1 	(obj:1)
t_x_231                                             1 	(obj:35)
t_x_232                                             1 	(obj:20)
t_x_233                                             1 	(obj:1)
t_x_235                                             1 	(obj:10)
t_x_238                                             1 	(obj:34)
t_x_239                                             1 	(obj:5)
t_x_241                                             1 	(obj:6)
t_x_242                                             1 	(obj:7)
t_x_248                                             1 	(obj:2)
t_x_254                                             1 	(obj:3)
t_x_256                                             1 	(obj:0)
t_x_261                                             1 	(obj:35)
t_x_265                                             1 	(obj:35)
t_x_266                                             1 	(obj:4)
t_x_268                                             1 	(obj:34)
t_x_270                                             1 	(obj:25)
t_x_272                                             1 	(obj:11)
t_x_273                                             1 	(obj:22)
t_x_282                                             1 	(obj:22)
t_x_294                                             1 	(obj:18)
t_x_299                                             1 	(obj:3)
t_x_302                                             1 	(obj:36)
t_x_309                                             1 	(obj:4)
t_x_314                                             1 	(obj:12)
t_x_321                                             1 	(obj:5)
t_x_322                                             1 	(obj:17)
t_x_327                                             1 	(obj:1)
t_x_328                                             1 	(obj:29)
t_x_331                                             1 	(obj:26)
t_x_333                                             1 	(obj:41)
t_x_334                                             1 	(obj:28)
t_x_335                                             1 	(obj:46)
t_x_338                                             1 	(obj:0)
t_x_340                                             1 	(obj:22)
t_x_355                                             1 	(obj:47)
t_x_356                                             1 	(obj:25)
t_x_357                                             1 	(obj:21)
t_x_362                                             1 	(obj:39)
t_x_367                                             1 	(obj:68)
t_x_375                                             1 	(obj:24)
t_x_383                                             1 	(obj:8)
t_x_391                                             1 	(obj:9)
t_x_394                                             1 	(obj:40)
t_x_400                                             1 	(obj:0)
t_x_403                                             1 	(obj:51)
t_x_404                                             1 	(obj:20)
t_x_406                                             1 	(obj:12)
t_x_410                                             1 	(obj:25)
t_x_414                                             1 	(obj:7)
t_x_415                                             1 	(obj:35)
t_x_416                                             1 	(obj:10)
t_x_422                                             1 	(obj:35)
t_x_424                                             1 	(obj:42)
t_x_429                                             1 	(obj:28)
t_x_430                                             1 	(obj:9)
t_x_434                                             1 	(obj:7)
t_x_439                                             1 	(obj:14)
t_x_442                                             1 	(obj:29)
t_x_448                                             1 	(obj:41)
t_x_451                                             1 	(obj:35)
t_x_452                                             1 	(obj:27)
t_x_453                                             1 	(obj:57)
t_x_456                                             1 	(obj:7)
t_x_460                                             1 	(obj:21)
t_x_462                                             1 	(obj:29)
t_x_463                                             1 	(obj:18)
t_x_470                                             1 	(obj:9)
t_x_481                                             1 	(obj:34)
t_x_484                                             1 	(obj:28)
t_x_486                                             1 	(obj:3)
t_x_495                                             1 	(obj:28)
t_x_498                                             1 	(obj:37)
t_x_499                                             1 	(obj:8)
t_x_501                                             1 	(obj:49)
t_x_502                                             1 	(obj:20)
t_x_508                                             1 	(obj:25)
t_x_510                                             1 	(obj:3)
t_x_511                                             1 	(obj:6)
t_x_512                                             1 	(obj:32)
t_x_514                                             1 	(obj:51)
t_x_517                                             1 	(obj:17)
t_x_520                                             1 	(obj:15)
t_x_522                                             1 	(obj:7)
t_x_525                                             1 	(obj:16)
t_x_531                                             1 	(obj:20)
t_x_533                                             1 	(obj:9)
t_x_537                                             1 	(obj:4)
t_x_542                                             1 	(obj:3)
t_x_546                                             1 	(obj:29)
t_x_549                                             1 	(obj:24)
t_x_550                                             1 	(obj:16)
t_x_551                                             1 	(obj:26)
t_x_555                                             1 	(obj:12)
t_x_556                                             1 	(obj:34)
t_x_558                                             1 	(obj:24)
t_x_561                                             1 	(obj:37)
t_x_567                                             1 	(obj:19)
t_x_569                                             1 	(obj:21)
t_x_573                                             1 	(obj:16)
t_x_579                                             1 	(obj:4)
t_x_580                                             1 	(obj:13)
t_x_589                                             1 	(obj:40)
t_x_592                                             1 	(obj:14)
t_x_597                                             1 	(obj:5)
t_x_601                                             1 	(obj:45)
t_x_608                                             1 	(obj:6)
t_x_610                                             1 	(obj:33)
t_x_615                                             1 	(obj:32)
t_x_618                                             1 	(obj:41)
t_x_619                                             1 	(obj:20)
t_x_624                                             1 	(obj:39)
t_x_626                                             1 	(obj:28)
t_x_630                                             1 	(obj:7)
t_x_638                                             1 	(obj:18)
t_x_648                                             1 	(obj:33)
t_x_656                                             1 	(obj:30)
t_x_661                                             1 	(obj:1)
t_x_662                                             1 	(obj:6)
t_x_664                                             1 	(obj:45)
t_x_666                                             1 	(obj:16)
t_x_671                                             1 	(obj:9)
t_x_672                                             1 	(obj:8)
t_x_682                                             1 	(obj:34)
t_x_683                                             1 	(obj:31)
t_x_684                                             1 	(obj:17)
t_x_686                                             1 	(obj:9)
t_x_688                                             1 	(obj:31)
t_x_689                                             1 	(obj:8)
t_x_690                                             1 	(obj:24)
t_x_694                                             1 	(obj:43)
t_x_695                                             1 	(obj:15)
t_x_696                                             1 	(obj:24)
t_x_697                                             1 	(obj:13)
t_x_698                                             1 	(obj:46)
t_x_701                                             1 	(obj:5)
t_x_703                                             1 	(obj:14)
t_x_708                                             1 	(obj:2)
t_x_710                                             1 	(obj:30)
t_x_714                                             1 	(obj:28)
t_x_718                                             1 	(obj:37)
t_x_719                                             1 	(obj:36)
t_x_725                                             1 	(obj:16)
t_x_727                                             1 	(obj:0)
t_x_731                                             1 	(obj:2)
t_x_738                                             1 	(obj:38)
t_x_741                                             1 	(obj:6)
t_x_744                                             1 	(obj:12)
t_x_750                                             1 	(obj:55)
t_x_758                                             1 	(obj:8)
t_x_759                                             1 	(obj:20)
t_x_763                                             1 	(obj:20)
t_x_768                                             1 	(obj:6)
t_x_769                                             1 	(obj:13)
t_x_772                                             1 	(obj:11)
t_x_775                                             1 	(obj:9)
t_x_777                                             1 	(obj:4)
t_x_780                                             1 	(obj:8)
t_x_782                                             1 	(obj:16)
t_x_783                                             1 	(obj:8)
t_x_784                                             1 	(obj:21)
t_x_786                                             1 	(obj:22)
t_x_796                                             1 	(obj:18)
t_x_799                                             1 	(obj:22)
t_x_803                                             1 	(obj:3)
t_x_804                                             1 	(obj:12)
t_x_807                                             1 	(obj:23)
t_x_808                                             1 	(obj:26)
t_x_811                                             1 	(obj:24)
t_x_817                                             1 	(obj:31)
t_x_822                                             1 	(obj:7)
t_x_824                                             1 	(obj:9)
t_x_825                                             1 	(obj:23)
t_x_829                                             1 	(obj:8)
t_x_831                                             1 	(obj:7)
t_x_833                                             1 	(obj:16)
t_x_834                                             1 	(obj:19)
t_x_837                                             1 	(obj:36)
t_x_839                                             1 	(obj:56)
t_x_840                                             1 	(obj:2)
t_x_844                                             1 	(obj:30)
t_x_848                                             1 	(obj:19)
t_x_851                                             1 	(obj:27)
t_x_855                                             1 	(obj:14)
t_x_856                                             1 	(obj:62)
t_x_862                                             1 	(obj:20)
t_x_875                                             1 	(obj:5)
t_x_879                                             1 	(obj:11)
t_x_881                                             1 	(obj:45)
t_x_883                                             1 	(obj:7)
t_x_884                                             1 	(obj:32)
t_x_886                                             1 	(obj:14)
t_x_888                                             1 	(obj:23)
t_x_890                                             1 	(obj:3)
t_x_891                                             1 	(obj:23)
t_x_896                                             1 	(obj:5)
t_x_897                                             1 	(obj:0)
t_x_903                                             1 	(obj:1)
t_x_904                                             1 	(obj:40)
t_x_905                                             1 	(obj:19)
t_x_906                                             1 	(obj:19)
t_x_910                                             1 	(obj:23)
t_x_912                                             1 	(obj:0)
t_x_913                                             1 	(obj:0)
t_x_920                                             1 	(obj:31)
t_x_925                                             1 	(obj:21)
t_x_926                                             1 	(obj:28)
t_x_927                                             1 	(obj:31)
t_x_933                                             1 	(obj:42)
t_x_934                                             1 	(obj:29)
t_x_939                                             1 	(obj:2)
t_x_942                                             1 	(obj:56)
t_x_952                                             1 	(obj:2)
t_x_954                                             1 	(obj:5)
t_x_955                                             1 	(obj:24)
t_x_958                                             1 	(obj:14)
t_x_959                                             1 	(obj:64)
t_x_960                                             1 	(obj:8)
t_x_962                                             1 	(obj:6)
t_x_963                                             1 	(obj:27)
t_x_964                                             1 	(obj:27)
t_x_965                                             1 	(obj:6)
t_x_976                                             1 	(obj:32)
t_x_979                                             1 	(obj:44)
t_x_986                                             1 	(obj:34)
t_x_991                                             1 	(obj:13)
t_x_996                                             1 	(obj:33)
t_x_1007                                            1 	(obj:23)
t_x_1011                                            1 	(obj:15)
t_x_1016                                            1 	(obj:7)
t_x_1021                                            1 	(obj:32)
t_x_1023                                            1 	(obj:13)
t_x_1025                                            1 	(obj:37)
t_x_1027                                            1 	(obj:33)
t_x_1033                                            1 	(obj:3)
t_x_1034                                            1 	(obj:25)
t_x_1035                                            1 	(obj:13)
t_x_1037                                            1 	(obj:19)
t_x_1038                                            1 	(obj:27)
t_x_1039                                            1 	(obj:9)
t_x_1041                                            1 	(obj:27)
t_x_1043                                            1 	(obj:34)
t_x_1047                                            1 	(obj:15)
t_x_1049                                            1 	(obj:25)
t_x_1050                                            1 	(obj:13)
t_x_1055                                            1 	(obj:44)
t_x_1065                                            1 	(obj:49)
t_x_1074                                            1 	(obj:25)
t_x_1079                                            1 	(obj:1)
t_x_1082                                            1 	(obj:9)
t_x_1083                                            1 	(obj:5)
t_x_1086                                            1 	(obj:1)
t_x_1087                                            1 	(obj:19)
t_x_1088                                            1 	(obj:17)
t_x_1110                                            1 	(obj:25)
t_x_1115                                            1 	(obj:29)
t_x_1118                                            1 	(obj:10)
t_x_1120                                            1 	(obj:24)
t_x_1122                                            1 	(obj:6)
t_x_1126                                            1 	(obj:2)
t_x_1128                                            1 	(obj:11)
t_x_1129                                            1 	(obj:12)
t_x_1130                                            1 	(obj:26)
t_x_1149                                            1 	(obj:3)
t_x_1156                                            1 	(obj:3)
t_x_1161                                            1 	(obj:11)
t_x_1162                                            1 	(obj:19)
t_x_1170                                            1 	(obj:43)
t_x_1180                                            1 	(obj:24)
t_x_1186                                            1 	(obj:1)
t_x_1194                                            1 	(obj:7)
t_x_1197                                            1 	(obj:32)
t_x_1198                                            1 	(obj:30)
t_x_1199                                            1 	(obj:0)
t_x_1204                                            1 	(obj:1)
t_x_1205                                            1 	(obj:3)
t_x_1209                                            1 	(obj:43)
t_x_1213                                            1 	(obj:8)
t_x_1218                                            1 	(obj:4)
t_x_1220                                            1 	(obj:25)
t_x_1221                                            1 	(obj:4)
t_x_1223                                            1 	(obj:1)
t_x_1226                                            1 	(obj:1)
t_x_1227                                            1 	(obj:7)
t_x_1228                                            1 	(obj:16)
t_x_1230                                            1 	(obj:17)
t_x_1231                                            1 	(obj:45)
t_x_1242                                            1 	(obj:4)
t_x_1246                                            1 	(obj:27)
t_x_1247                                            1 	(obj:29)
t_x_1256                                            1 	(obj:23)
t_x_1257                                            1 	(obj:21)
t_x_1260                                            1 	(obj:8)
t_x_1267                                            1 	(obj:16)
t_x_1270                                            1 	(obj:37)
t_x_1272                                            1 	(obj:2)
t_x_1274                                            1 	(obj:32)
t_x_1284                                            1 	(obj:4)
t_x_1285                                            1 	(obj:11)
t_x_1296                                            1 	(obj:6)
t_x_1297                                            1 	(obj:29)
t_x_1299                                            1 	(obj:29)
t_x_1303                                            1 	(obj:9)
t_x_1304                                            1 	(obj:4)
t_x_1308                                            1 	(obj:51)
t_x_1309                                            1 	(obj:0)
t_x_1316                                            1 	(obj:21)
t_x_1317                                            1 	(obj:0)
t_x_1325                                            1 	(obj:14)
t_x_1326                                            1 	(obj:14)
t_x_1328                                            1 	(obj:9)
t_x_1329                                            1 	(obj:6)
t_x_1333                                            1 	(obj:8)
t_x_1334                                            1 	(obj:25)
t_x_1335                                            1 	(obj:3)
t_x_1337                                            1 	(obj:34)
t_x_1340                                            1 	(obj:2)
t_x_1343                                            1 	(obj:12)
t_x_1350                                            1 	(obj:16)
t_x_1356                                            1 	(obj:13)
t_x_1362                                            1 	(obj:31)
t_x_1372                                            1 	(obj:14)
t_x_1376                                            1 	(obj:1)
t_x_1377                                            1 	(obj:17)
t_x_1379                                            1 	(obj:5)
t_x_1384                                            1 	(obj:18)
t_x_1388                                            1 	(obj:0)
t_x_1390                                            1 	(obj:16)
t_x_1391                                            1 	(obj:12)
t_x_1396                                            1 	(obj:38)
t_x_1399                                            1 	(obj:3)
t_x_1401                                            1 	(obj:16)
t_x_1410                                            1 	(obj:6)
t_x_1411                                            1 	(obj:2)
t_x_1412                                            1 	(obj:1)
t_x_1413                                            1 	(obj:20)
t_x_1414                                            1 	(obj:62)
t_x_1415                                            1 	(obj:4)
t_x_1416                                            1 	(obj:1)
t_x_1417                                            1 	(obj:18)
t_x_1422                                            1 	(obj:16)
t_x_1423                                            1 	(obj:5)
t_x_1428                                            1 	(obj:20)
t_x_1429                                            1 	(obj:2)
t_x_1436                                            1 	(obj:26)
t_x_1439                                            1 	(obj:17)
t_x_1443                                            1 	(obj:21)
t_x_1444                                            1 	(obj:35)
t_x_1461                                            1 	(obj:39)
t_x_1464                                            1 	(obj:35)
t_x_1472                                            1 	(obj:4)
t_x_1474                                            1 	(obj:25)
t_x_1475                                            1 	(obj:47)
t_x_1477                                            1 	(obj:8)
t_x_1482                                            1 	(obj:8)
t_x_1484                                            1 	(obj:4)
t_x_1490                                            1 	(obj:22)
t_x_1494                                            1 	(obj:6)
t_x_1495                                            1 	(obj:37)
t_x_1496                                            1 	(obj:19)
t_x_1497                                            1 	(obj:27)
t_x_1498                                            1 	(obj:14)
t_x_1501                                            1 	(obj:6)
t_x_1511                                            1 	(obj:6)
t_x_1515                                            1 	(obj:25)
t_x_1517                                            1 	(obj:7)
t_x_1518                                            1 	(obj:1)
t_x_1521                                            1 	(obj:10)
t_x_1523                                            1 	(obj:6)
t_x_1524                                            1 	(obj:15)
t_x_1527                                            1 	(obj:5)
t_x_1529                                            1 	(obj:19)
t_x_1536                                            1 	(obj:6)
t_x_1537                                            1 	(obj:5)
t_x_1542                                            1 	(obj:0)
t_x_1544                                            1 	(obj:4)
t_x_1545                                            1 	(obj:17)
t_x_1546                                            1 	(obj:0)
t_x_1547                                            1 	(obj:8)
t_x_1549                                            1 	(obj:4)
t_x_1551                                            1 	(obj:32)
t_x_1554                                            1 	(obj:20)
t_x_1555                                            1 	(obj:38)
t_x_1556                                            1 	(obj:12)
t_x_1558                                            1 	(obj:20)
t_x_1560                                            1 	(obj:15)
t_x_1561                                            1 	(obj:34)
t_x_1566                                            1 	(obj:44)
t_x_1569                                            1 	(obj:7)
t_x_1578                                            1 	(obj:28)
t_x_1579                                            1 	(obj:39)
t_x_1581                                            1 	(obj:6)
t_x_1582                                            1 	(obj:10)
t_x_1584                                            1 	(obj:3)
t_x_1586                                            1 	(obj:2)
t_x_1588                                            1 	(obj:11)
t_x_1589                                            1 	(obj:3)
t_x_1591                                            1 	(obj:13)
t_x_1599                                            1 	(obj:12)
t_x_1602                                            1 	(obj:23)
t_x_1605                                            1 	(obj:30)
t_x_1606                                            1 	(obj:44)
t_x_1608                                            1 	(obj:6)
t_x_1611                                            1 	(obj:22)
t_x_1614                                            1 	(obj:29)
t_x_1616                                            1 	(obj:2)
t_x_1619                                            1 	(obj:29)
t_x_1620                                            1 	(obj:21)
t_x_1623                                            1 	(obj:20)
t_x_1624                                            1 	(obj:2)
t_x_1625                                            1 	(obj:15)
t_x_1630                                            1 	(obj:12)
t_x_1632                                            1 	(obj:39)
t_x_1635                                            1 	(obj:12)
t_x_1639                                            1 	(obj:16)
t_x_1640                                            1 	(obj:11)
t_x_1642                                            1 	(obj:4)
t_x_1647                                            1 	(obj:2)
t_x_1649                                            1 	(obj:30)
t_x_1656                                            1 	(obj:9)
t_x_1660                                            1 	(obj:31)
t_x_1666                                            1 	(obj:0)
t_x_1667                                            1 	(obj:29)
t_x_1668                                            1 	(obj:28)
t_x_1669                                            1 	(obj:6)
t_x_1671                                            1 	(obj:15)
t_x_1674                                            1 	(obj:23)
t_x_1676                                            1 	(obj:11)
t_x_1678                                            1 	(obj:30)
t_x_1679                                            1 	(obj:28)
t_x_1687                                            1 	(obj:40)
t_x_1688                                            1 	(obj:37)
t_x_1689                                            1 	(obj:8)
t_x_1691                                            1 	(obj:41)
t_x_1692                                            1 	(obj:8)
t_x_1702                                            1 	(obj:20)
t_x_1711                                            1 	(obj:32)
t_x_1712                                            1 	(obj:2)
t_x_1716                                            1 	(obj:52)
t_x_1719                                            1 	(obj:13)
t_x_1723                                            1 	(obj:10)
t_x_1731                                            1 	(obj:8)
t_x_1734                                            1 	(obj:14)
t_x_1737                                            1 	(obj:10)
t_x_1738                                            1 	(obj:60)
t_x_1740                                            1 	(obj:14)
t_x_1743                                            1 	(obj:29)
t_x_1756                                            1 	(obj:7)
t_x_1757                                            1 	(obj:27)
t_x_1761                                            1 	(obj:10)
t_x_1764                                            1 	(obj:13)
t_x_1767                                            1 	(obj:16)
t_x_1772                                            1 	(obj:36)
t_x_1773                                            1 	(obj:1)
t_x_1776                                            1 	(obj:38)
t_x_1791                                            1 	(obj:15)
t_x_1794                                            1 	(obj:29)
t_x_1797                                            1 	(obj:4)
t_x_1800                                            1 	(obj:10)
t_x_1807                                            1 	(obj:11)
t_x_1809                                            1 	(obj:3)
t_x_1811                                            1 	(obj:8)
t_x_1823                                            1 	(obj:4)
t_x_1824                                            1 	(obj:12)
t_x_1825                                            1 	(obj:42)
t_x_1827                                            1 	(obj:29)
t_x_1830                                            1 	(obj:24)
t_x_1831                                            1 	(obj:17)
t_x_1832                                            1 	(obj:24)
t_x_1836                                            1 	(obj:34)
t_x_1839                                            1 	(obj:2)
t_x_1842                                            1 	(obj:53)
t_x_1845                                            1 	(obj:36)
t_x_1846                                            1 	(obj:32)
t_x_1847                                            1 	(obj:5)
t_x_1848                                            1 	(obj:2)
t_x_1850                                            1 	(obj:48)
t_x_1853                                            1 	(obj:6)
t_x_1855                                            1 	(obj:40)
t_x_1859                                            1 	(obj:34)
t_x_1862                                            1 	(obj:21)
t_x_1863                                            1 	(obj:31)
t_x_1866                                            1 	(obj:41)
t_x_1867                                            1 	(obj:24)
t_x_1869                                            1 	(obj:12)
t_x_1871                                            1 	(obj:17)
t_x_1874                                            1 	(obj:27)
t_x_1875                                            1 	(obj:34)
t_x_1876                                            1 	(obj:4)
t_x_1883                                            1 	(obj:0)
t_x_1884                                            1 	(obj:30)
t_x_1885                                            1 	(obj:0)
t_x_1886                                            1 	(obj:41)
t_x_1887                                            1 	(obj:13)
t_x_1888                                            1 	(obj:2)
t_x_1893                                            1 	(obj:31)
t_x_1894                                            1 	(obj:8)
t_x_1900                                            1 	(obj:27)
t_x_1902                                            1 	(obj:3)
t_x_1903                                            1 	(obj:16)
t_x_1905                                            1 	(obj:1)
t_x_1911                                            1 	(obj:12)
t_x_1919                                            1 	(obj:17)
t_x_1920                                            1 	(obj:10)
t_x_1923                                            1 	(obj:14)
t_x_1926                                            1 	(obj:8)
t_x_1927                                            1 	(obj:5)
t_x_1934                                            1 	(obj:5)
t_x_1935                                            1 	(obj:33)
t_x_1936                                            1 	(obj:24)
t_x_1941                                            1 	(obj:10)
t_x_1942                                            1 	(obj:14)
t_x_1944                                            1 	(obj:17)
t_x_1945                                            1 	(obj:22)
t_x_1948                                            1 	(obj:35)
t_x_1949                                            1 	(obj:1)
t_x_1953                                            1 	(obj:34)
t_x_1954                                            1 	(obj:5)
t_x_1956                                            1 	(obj:28)
t_x_1964                                            1 	(obj:70)
t_x_1969                                            1 	(obj:31)
t_x_1972                                            1 	(obj:10)
t_x_1976                                            1 	(obj:4)
t_x_1981                                            1 	(obj:18)
t_x_1982                                            1 	(obj:51)
t_x_1983                                            1 	(obj:3)
t_x_1986                                            1 	(obj:5)
t_x_1990                                            1 	(obj:31)
t_x_1992                                            1 	(obj:22)
t_x_1995                                            1 	(obj:2)
t_x_1997                                            1 	(obj:4)
